50 10668

52
482
386
472
360
107
238
325
408
174
404
303
285
188
350
452
9
458
474
166
254
336
35
458
174
315
96
471
234
201
355
342
472
261
107
88
48
127
434
389
497
111
417
60
259
141
353
108
37
62
